data;
param T := 15500;
param N := 27;
param W := 
[0] 1793
[1] 7802
[2] 5287
[3] 4252
[4] 4981
[5] 6494
[6] 4786
[7] 7711
[8] 4687
[9] 7437
[10] 9115
[11] 1649
[12] 3862
[13] 2699
[14] 2865
[15] 1387
[16] 1259
[17] 2812
[18] 1815
[19] 4474
[20] 7240
[21] 2147
[22] 2516
[23] 5962
[24] 9594
[25] 9452
[26] 3546
;
end;